NAME          DCAP_3_4_2_500_SS46
ROWS
 N  OBJ
 L  CON1
 L  CON2
 L  CON3
 L  CON4
 L  CON5
 L  CON6
 L  CON7
 L  CON8
 L  CON9
 L  CON10
 L  CON11
 L  CON12
 E  CON13
 E  CON14
 E  CON15
 E  CON16
 E  CON17
 E  CON18
 E  CON19
 E  CON20
COLUMNS
    x[1,1]    OBJ       6.180167      CON1      1.000000    
    x[1,1]    CON7      -1.000000     CON8      -1.000000   
    x[1,2]    OBJ       5.039546      CON2      1.000000    
    x[1,2]    CON8      -1.000000   
    x[2,1]    OBJ       6.732585      CON3      1.000000    
    x[2,1]    CON9      -1.000000     CON10     -1.000000   
    x[2,2]    OBJ       7.443064      CON4      1.000000    
    x[2,2]    CON10     -1.000000   
    x[3,1]    OBJ       6.563535      CON5      1.000000    
    x[3,1]    CON11     -1.000000     CON12     -1.000000   
    x[3,2]    OBJ       6.054841      CON6      1.000000    
    x[3,2]    CON12     -1.000000   
    MARKER    'MARKER'                'INTORG'
    u[1,1]    OBJ       48.076654     CON1      -1.000000   
    u[1,2]    OBJ       49.466655     CON2      -1.000000   
    u[2,1]    OBJ       49.996186     CON3      -1.000000   
    u[2,2]    OBJ       32.230043     CON4      -1.000000   
    u[3,1]    OBJ       20.066487     CON5      -1.000000   
    u[3,2]    OBJ       27.484319     CON6      -1.000000   
    y[1,1,1]  OBJ       5.153368      CON7      1.095769    
    y[1,1,1]  CON13     1.000000    
    y[1,1,2]  OBJ       8.097923      CON8      1.064036    
    y[1,1,2]  CON14     1.000000    
    y[1,2,1]  OBJ       7.173225      CON7      0.770891    
    y[1,2,1]  CON15     1.000000    
    y[1,2,2]  OBJ       7.465011      CON8      0.731983    
    y[1,2,2]  CON16     1.000000    
    y[1,3,1]  OBJ       8.500652      CON7      1.291160    
    y[1,3,1]  CON17     1.000000    
    y[1,3,2]  OBJ       7.342392      CON8      0.871364    
    y[1,3,2]  CON18     1.000000    
    y[1,4,1]  OBJ       8.804554      CON7      1.077010    
    y[1,4,1]  CON19     1.000000    
    y[1,4,2]  OBJ       9.005703      CON8      0.606616    
    y[1,4,2]  CON20     1.000000    
    y[2,1,1]  OBJ       8.149320      CON9      1.095769    
    y[2,1,1]  CON13     1.000000    
    y[2,1,2]  OBJ       9.029008      CON10     1.064036    
    y[2,1,2]  CON14     1.000000    
    y[2,2,1]  OBJ       7.135937      CON9      0.770891    
    y[2,2,1]  CON15     1.000000    
    y[2,2,2]  OBJ       8.031428      CON10     0.731983    
    y[2,2,2]  CON16     1.000000    
    y[2,3,1]  OBJ       6.525184      CON9      1.291160    
    y[2,3,1]  CON17     1.000000    
    y[2,3,2]  OBJ       7.384171      CON10     0.871364    
    y[2,3,2]  CON18     1.000000    
    y[2,4,1]  OBJ       7.401131      CON9      1.077010    
    y[2,4,1]  CON19     1.000000    
    y[2,4,2]  OBJ       9.031662      CON10     0.606616    
    y[2,4,2]  CON20     1.000000    
    y[3,1,1]  OBJ       8.517359      CON11     1.095769    
    y[3,1,1]  CON13     1.000000    
    y[3,1,2]  OBJ       6.330476      CON12     1.064036    
    y[3,1,2]  CON14     1.000000    
    y[3,2,1]  OBJ       9.112863      CON11     0.770891    
    y[3,2,1]  CON15     1.000000    
    y[3,2,2]  OBJ       8.474916      CON12     0.731983    
    y[3,2,2]  CON16     1.000000    
    y[3,3,1]  OBJ       8.898824      CON11     1.291160    
    y[3,3,1]  CON17     1.000000    
    y[3,3,2]  OBJ       9.592491      CON12     0.871364    
    y[3,3,2]  CON18     1.000000    
    y[3,4,1]  OBJ       9.552111      CON11     1.077010    
    y[3,4,1]  CON19     1.000000    
    y[3,4,2]  OBJ       8.609836      CON12     0.606616    
    y[3,4,2]  CON20     1.000000    
    z[1,1]    OBJ       569.201420    CON13     1.000000    
    z[1,2]    OBJ       920.916449    CON14     1.000000    
    z[2,1]    OBJ       718.007781    CON15     1.000000    
    z[2,2]    OBJ       606.718871    CON16     1.000000    
    z[3,1]    OBJ       515.572147    CON17     1.000000    
    z[3,2]    OBJ       554.044895    CON18     1.000000    
    z[4,1]    OBJ       662.703175    CON19     1.000000    
    z[4,2]    OBJ       737.791805    CON20     1.000000    
    MARKER    'MARKER'                 'INTEND'
RHS
    RHS       CON1      -0.000000     CON2      -0.000000   
    RHS       CON3      -0.000000     CON4      -0.000000   
    RHS       CON5      -0.000000     CON6      -0.000000   
    RHS       CON7      -0.000000     CON8      -0.000000   
    RHS       CON9      -0.000000     CON10     -0.000000   
    RHS       CON11     -0.000000     CON12     -0.000000   
    RHS       CON13     1.000000      CON14     1.000000    
    RHS       CON15     1.000000      CON16     1.000000    
    RHS       CON17     1.000000      CON18     1.000000    
    RHS       CON19     1.000000      CON20     1.000000    
BOUNDS
 BV BOUND     u[1,1]  
 BV BOUND     u[1,2]  
 BV BOUND     u[2,1]  
 BV BOUND     u[2,2]  
 BV BOUND     u[3,1]  
 BV BOUND     u[3,2]  
 BV BOUND     y[1,1,1]
 BV BOUND     y[1,1,2]
 BV BOUND     y[1,2,1]
 BV BOUND     y[1,2,2]
 BV BOUND     y[1,3,1]
 BV BOUND     y[1,3,2]
 BV BOUND     y[1,4,1]
 BV BOUND     y[1,4,2]
 BV BOUND     y[2,1,1]
 BV BOUND     y[2,1,2]
 BV BOUND     y[2,2,1]
 BV BOUND     y[2,2,2]
 BV BOUND     y[2,3,1]
 BV BOUND     y[2,3,2]
 BV BOUND     y[2,4,1]
 BV BOUND     y[2,4,2]
 BV BOUND     y[3,1,1]
 BV BOUND     y[3,1,2]
 BV BOUND     y[3,2,1]
 BV BOUND     y[3,2,2]
 BV BOUND     y[3,3,1]
 BV BOUND     y[3,3,2]
 BV BOUND     y[3,4,1]
 BV BOUND     y[3,4,2]
 BV BOUND     z[1,1]  
 BV BOUND     z[1,2]  
 BV BOUND     z[2,1]  
 BV BOUND     z[2,2]  
 BV BOUND     z[3,1]  
 BV BOUND     z[3,2]  
 BV BOUND     z[4,1]  
 BV BOUND     z[4,2]  
ENDATA
